jobs  (incl. supersource/sink ):	52
RESOURCES
- renewable                 : 2 R
- nonrenewable              : 2 N
- doubly constrained        : 0 D
************************************************************************
PRECEDENCE RELATIONS:
jobnr.    #modes  #successors   successors
1	1	4		2 3 5 8 
2	3	2		6 4 
3	3	2		13 6 
4	3	3		13 12 7 
5	3	3		13 12 7 
6	3	2		12 7 
7	3	3		19 10 9 
8	3	3		13 11 10 
9	3	2		14 11 
10	3	4		18 17 16 15 
11	3	4		23 20 18 16 
12	3	3		18 17 15 
13	3	3		23 19 15 
14	3	3		28 22 17 
15	3	6		31 28 26 25 22 21 
16	3	6		31 26 25 24 22 21 
17	3	3		27 23 21 
18	3	7		34 31 30 29 28 26 25 
19	3	6		32 31 30 29 26 25 
20	3	6		36 34 32 30 27 25 
21	3	6		38 37 34 32 30 29 
22	3	5		37 34 32 29 27 
23	3	4		34 31 26 25 
24	3	6		46 41 39 38 35 34 
25	3	4		45 44 37 33 
26	3	4		45 38 36 33 
27	3	3		38 35 33 
28	3	3		39 35 33 
29	3	3		39 36 35 
30	3	2		35 33 
31	3	5		51 46 43 39 35 
32	3	6		51 45 44 43 40 39 
33	3	5		51 46 43 41 40 
34	3	5		51 49 44 43 40 
35	3	4		49 45 44 40 
36	3	4		51 43 42 41 
37	3	2		42 39 
38	3	4		51 44 43 42 
39	3	4		50 49 48 47 
40	3	3		50 48 42 
41	3	3		49 48 47 
42	3	1		47 
43	3	1		47 
44	3	1		47 
45	3	1		47 
46	3	1		47 
47	3	1		52 
48	3	1		52 
49	3	1		52 
50	3	1		52 
51	3	1		52 
52	1	0		
************************************************************************
REQUESTS/DURATIONS
jobnr.	mode	dur	R1	R2	N1	N2	
------------------------------------------------------------------------
1	1	0	0	0	0	0	
2	1	2	6	0	0	6	
	2	8	4	0	0	5	
	3	10	4	0	0	3	
3	1	1	8	0	6	0	
	2	2	6	0	4	0	
	3	10	0	3	0	1	
4	1	3	0	6	0	5	
	2	4	5	0	0	3	
	3	10	0	5	0	1	
5	1	8	9	0	0	6	
	2	9	7	0	6	0	
	3	9	6	0	0	5	
6	1	3	0	6	2	0	
	2	6	8	0	0	3	
	3	6	6	0	1	0	
7	1	1	0	8	7	0	
	2	5	2	0	6	0	
	3	9	2	0	3	0	
8	1	1	0	9	9	0	
	2	8	2	0	0	3	
	3	9	1	0	7	0	
9	1	6	4	0	7	0	
	2	9	0	9	7	0	
	3	10	2	0	6	0	
10	1	1	0	6	7	0	
	2	6	5	0	6	0	
	3	8	0	2	4	0	
11	1	2	7	0	0	8	
	2	5	6	0	0	6	
	3	8	0	2	2	0	
12	1	3	0	5	0	10	
	2	6	8	0	2	0	
	3	9	0	2	0	8	
13	1	4	0	3	5	0	
	2	9	7	0	4	0	
	3	9	0	1	0	1	
14	1	1	0	5	6	0	
	2	3	3	0	4	0	
	3	9	0	5	0	5	
15	1	1	9	0	7	0	
	2	4	0	7	0	4	
	3	7	2	0	0	3	
16	1	3	6	0	7	0	
	2	5	6	0	6	0	
	3	7	4	0	6	0	
17	1	6	10	0	6	0	
	2	8	8	0	0	1	
	3	9	6	0	0	1	
18	1	2	0	8	8	0	
	2	3	0	5	0	5	
	3	7	0	4	3	0	
19	1	7	0	4	8	0	
	2	9	0	3	0	3	
	3	10	1	0	2	0	
20	1	4	0	4	4	0	
	2	9	0	2	0	3	
	3	10	3	0	0	3	
21	1	1	5	0	0	9	
	2	9	0	6	0	9	
	3	10	0	5	0	8	
22	1	3	7	0	8	0	
	2	4	0	2	5	0	
	3	10	0	2	4	0	
23	1	1	7	0	0	8	
	2	7	6	0	4	0	
	3	8	0	5	0	5	
24	1	4	9	0	0	7	
	2	5	8	0	0	6	
	3	8	7	0	0	3	
25	1	3	0	9	0	4	
	2	4	0	9	3	0	
	3	10	0	9	0	3	
26	1	5	8	0	1	0	
	2	7	7	0	1	0	
	3	7	7	0	0	5	
27	1	3	6	0	5	0	
	2	7	0	3	0	5	
	3	8	5	0	5	0	
28	1	2	7	0	6	0	
	2	3	5	0	3	0	
	3	9	0	9	0	2	
29	1	4	0	1	9	0	
	2	9	0	1	0	3	
	3	10	0	1	7	0	
30	1	6	2	0	2	0	
	2	8	1	0	0	9	
	3	9	1	0	2	0	
31	1	7	0	8	8	0	
	2	8	0	7	4	0	
	3	9	0	5	1	0	
32	1	2	4	0	0	7	
	2	5	0	8	0	6	
	3	6	0	8	0	4	
33	1	1	2	0	10	0	
	2	4	2	0	7	0	
	3	10	2	0	6	0	
34	1	1	0	9	0	4	
	2	5	2	0	0	3	
	3	6	2	0	7	0	
35	1	1	5	0	0	5	
	2	10	0	7	7	0	
	3	10	0	4	0	2	
36	1	4	3	0	0	6	
	2	5	1	0	0	4	
	3	6	1	0	2	0	
37	1	2	5	0	8	0	
	2	4	0	5	7	0	
	3	6	0	5	0	1	
38	1	3	0	4	0	6	
	2	4	6	0	6	0	
	3	10	5	0	4	0	
39	1	1	5	0	9	0	
	2	6	4	0	0	6	
	3	7	2	0	5	0	
40	1	1	6	0	3	0	
	2	5	0	4	3	0	
	3	8	0	4	1	0	
41	1	2	0	1	0	3	
	2	8	0	1	0	2	
	3	10	5	0	4	0	
42	1	6	6	0	0	10	
	2	9	0	3	0	6	
	3	10	0	2	0	5	
43	1	6	8	0	0	4	
	2	7	0	6	0	3	
	3	9	3	0	1	0	
44	1	4	0	5	0	3	
	2	5	4	0	5	0	
	3	8	4	0	0	1	
45	1	2	7	0	0	7	
	2	4	7	0	0	6	
	3	8	4	0	7	0	
46	1	6	5	0	0	8	
	2	7	0	4	0	7	
	3	8	0	4	0	5	
47	1	1	0	5	6	0	
	2	3	0	3	3	0	
	3	10	0	3	0	5	
48	1	6	0	5	0	9	
	2	7	0	3	0	6	
	3	9	5	0	0	3	
49	1	3	10	0	1	0	
	2	9	10	0	0	5	
	3	10	0	8	1	0	
50	1	2	7	0	0	9	
	2	5	0	9	0	6	
	3	8	4	0	0	1	
51	1	1	0	7	0	6	
	2	10	4	0	0	5	
	3	10	0	5	5	0	
52	1	0	0	0	0	0	
************************************************************************

 RESOURCE AVAILABILITIES 
	R 1	R 2	N 1	N 2
	28	22	78	79

************************************************************************
